1423,3777,7228,55,11893,2339,3996,2050,3937,12783,7481,9966,153,26018,18333,19607,19485,24239,9202,3048,15550,7713,9151,15989,6040,22050,24064,17888,7966,10295,10150,20316,1801,5017,19178,8606,25068,1433,25089,3426,20894,6220,8632,8097,7797,12380,3593,18291,18406,17201,21691,9262,21439,25651,1262,15335,17661,4320,24433,5665,6499,1622,13742,26093,12941,1423